WARNING: for repeatability, setting FPU to use double precision
============================[ Problem Statistics ]=============================
|                                                                             |
|  Number of variables:       2671804                                         |
|  Number of clauses:        13096972                                         |
|  Parse time:                   2.66 s                                       |
|                                                                             |
c ============================[ Search Statistics ]==============================
c | Conflicts |          ORIGINAL         |          LEARNT          | Progress |
c |           |    Vars  Clauses Literals |    Limit  Clauses Lit/Cl |          |
c ===============================================================================
We had 327176 decisions of which only 0 were on extended
We had 37435958 decisions of which only 2.67123e-06 were on extended
c Switched to VSIDS.
c Switched to LRB.
c Switched to VSIDS.
c Switched to LRB.
c Switched to VSIDS.
c Switched to LRB.
c Switched to VSIDS.
c Switched to LRB.
c Switched to VSIDS.
c Switched to LRB.
We had 75731667 decisions of which only 0.000431788 were on extended
c Switched to VSIDS.
c Switched to LRB.
c Switched to VSIDS.
c Switched to LRB.
c Switched to VSIDS.
c Switched to LRB.
c Switched to VSIDS.
We had 89567833 decisions of which only 0.000442123 were on extended
c Switched to LRB.
c Switched to VSIDS.
c Switched to LRB.
We had 105177519 decisions of which only 0.000656034 were on extended
c Switched to VSIDS.
c Switched to LRB.
c Switched to VSIDS.
c Switched to LRB.
We had 116218459 decisions of which only 0.0016882 were on extended
c Switched to VSIDS.
c Switched to LRB.
We had 117339617 decisions of which only 0.00174366 were on extended
We had 117512121 decisions of which only 0.00174876 were on extended
c Switched to VSIDS.
We had 117747434 decisions of which only 0.00174611 were on extended
We had 118409608 decisions of which only 0.00173635 were on extended
c Switched to LRB.
We had 118542217 decisions of which only 0.00176646 were on extended
We had 118745598 decisions of which only 0.00176428 were on extended
c Switched to VSIDS.
We had 118920504 decisions of which only 0.00176925 were on extended
We had 118956129 decisions of which only 0.00176872 were on extended
c ===============================================================================
restarts                  : 493
conflicts                 : 134845         (38 /sec)
decisions                 : 118965749      (0.00 % random) (33247 /sec)
propagations              : 6202259939     (1733334 /sec)
conflict literals         : 113776067      (40.69 % deleted)

conflicts w/ DIP found    : 102227         (75.81 % of conflicts)
conflicts w/ dangerous DIP: 0              (0.00 % of conflicts)
conflicts w/ DIP-learning : 122            (0.09 % of conflicts)
decisions on ext vars     : 2104           (0.00 % of decisions)
total ext vars            : 77          
tried delete ext vars     : 29          
deleted ext vars          : 29          
max ext vars              : 48          

Memory used               : 2293.00 MB
CPU time                  : 3578.23 s
DIP computation time      : 8.51491 s (0.24 % of total time)
ER_sel time               : 0.360377 s
ER_add time               : 0.001588 s
ER_delC time              : 0 s
ER_delV time              : 0.03282 s
ER_sub time               : 1.26317 s
ER_stat time              : 0 s

INDETERMINATE
